\ Model MPC
\ LP format - for model browsing. Use MPS format to capture full model detail.
Minimize
 [ 2.17014e-06 y[0,0] ^2 + 1.82326e-07 y[0,1] ^2 + 1.82326e-07 y[0,2] ^2
   + 1.54707e-06 y[0,3] ^2 + 2.17014e-06 y[1,0] ^2 + 1.82326e-07 y[1,1] ^2
   + 1.82326e-07 y[1,2] ^2 + 1.54707e-06 y[1,3] ^2 + 2.17014e-06 y[2,0] ^2
   + 1.82326e-07 y[2,1] ^2 + 1.82326e-07 y[2,2] ^2 + 1.54707e-06 y[2,3] ^2
   + 2.17014e-06 y[3,0] ^2 + 1.82326e-07 y[3,1] ^2 + 1.82326e-07 y[3,2] ^2
   + 1.54707e-06 y[3,3] ^2 + 2.17014e-06 y[4,0] ^2 + 1.82326e-07 y[4,1] ^2
   + 1.82326e-07 y[4,2] ^2 + 1.54707e-06 y[4,3] ^2 + 2.17014e-06 y[5,0] ^2
   + 1.82326e-07 y[5,1] ^2 + 1.82326e-07 y[5,2] ^2 + 1.54707e-06 y[5,3] ^2
   + 2.17014e-06 y[6,0] ^2 + 1.82326e-07 y[6,1] ^2 + 1.82326e-07 y[6,2] ^2
   + 1.54707e-06 y[6,3] ^2 + 2.17014e-06 y[7,0] ^2 + 1.82326e-07 y[7,1] ^2
   + 1.82326e-07 y[7,2] ^2 + 1.54707e-06 y[7,3] ^2 + 2.17014e-06 y[8,0] ^2
   + 1.82326e-07 y[8,1] ^2 + 1.82326e-07 y[8,2] ^2 + 1.54707e-06 y[8,3] ^2
   + 2.17014e-06 y[9,0] ^2 + 1.82326e-07 y[9,1] ^2 + 1.82326e-07 y[9,2] ^2
   + 1.54707e-06 y[9,3] ^2 + 2.17014e-06 y[10,0] ^2
   + 1.82326e-07 y[10,1] ^2 + 1.82326e-07 y[10,2] ^2
   + 1.54707e-06 y[10,3] ^2 + 2.17014e-06 y[11,0] ^2
   + 1.82326e-07 y[11,1] ^2 + 1.82326e-07 y[11,2] ^2
   + 1.54707e-06 y[11,3] ^2 + 2.17014e-06 y[12,0] ^2
   + 1.82326e-07 y[12,1] ^2 + 1.82326e-07 y[12,2] ^2
   + 1.54707e-06 y[12,3] ^2 + 2.17014e-06 y[13,0] ^2
   + 1.82326e-07 y[13,1] ^2 + 1.82326e-07 y[13,2] ^2
   + 1.54707e-06 y[13,3] ^2 + 2.17014e-06 y[14,0] ^2
   + 1.82326e-07 y[14,1] ^2 + 1.82326e-07 y[14,2] ^2
   + 1.54707e-06 y[14,3] ^2 + 2.17014e-06 y[15,0] ^2
   + 1.82326e-07 y[15,1] ^2 + 1.82326e-07 y[15,2] ^2
   + 1.54707e-06 y[15,3] ^2 + 0.1 z[0,0] ^2 + 0.5 z[0,1] ^2 + 0.1 z[0,2] ^2
   + 0.5 z[0,3] ^2 + 0.1 z[1,0] ^2 + 0.5 z[1,1] ^2 + 0.1 z[1,2] ^2
   + 0.5 z[1,3] ^2 + 0.1 z[2,0] ^2 + 0.5 z[2,1] ^2 + 0.1 z[2,2] ^2
   + 0.5 z[2,3] ^2 + 0.1 z[3,0] ^2 + 0.5 z[3,1] ^2 + 0.1 z[3,2] ^2
   + 0.5 z[3,3] ^2 + 0.1 z[4,0] ^2 + 0.5 z[4,1] ^2 + 0.1 z[4,2] ^2
   + 0.5 z[4,3] ^2 + 0.1 z[5,0] ^2 + 0.5 z[5,1] ^2 + 0.1 z[5,2] ^2
   + 0.5 z[5,3] ^2 + 0.1 z[6,0] ^2 + 0.5 z[6,1] ^2 + 0.1 z[6,2] ^2
   + 0.5 z[6,3] ^2 + 0.1 z[7,0] ^2 + 0.5 z[7,1] ^2 + 0.1 z[7,2] ^2
   + 0.5 z[7,3] ^2 + 0.1 z[8,0] ^2 + 0.5 z[8,1] ^2 + 0.1 z[8,2] ^2
   + 0.5 z[8,3] ^2 + 0.1 z[9,0] ^2 + 0.5 z[9,1] ^2 + 0.1 z[9,2] ^2
   + 0.5 z[9,3] ^2 + 0.1 z[10,0] ^2 + 0.5 z[10,1] ^2 + 0.1 z[10,2] ^2
   + 0.5 z[10,3] ^2 + 0.1 z[11,0] ^2 + 0.5 z[11,1] ^2 + 0.1 z[11,2] ^2
   + 0.5 z[11,3] ^2 + 0.1 z[12,0] ^2 + 0.5 z[12,1] ^2 + 0.1 z[12,2] ^2
   + 0.5 z[12,3] ^2 + 0.1 z[13,0] ^2 + 0.5 z[13,1] ^2 + 0.1 z[13,2] ^2
   + 0.5 z[13,3] ^2 + 0.1 z[14,0] ^2 + 0.5 z[14,1] ^2 + 0.1 z[14,2] ^2
   + 0.5 z[14,3] ^2 ] / 2 
Subject To
 R0: x[0,0] = 13
 R1: x[0,1] = 36
 R2: x[0,2] = 28
 R3: x[0,3] = 42
 R4: - x[0,0] + x[1,0] + 0.2336111111111111 u[0,0] = 8.983333333333333
 R5: - x[0,1] + x[1,1] + 0.4194444444444445 u[0,1] = 32.84166666666667
 R6: - x[0,2] + x[1,2] + 0.5602777777777778 u[0,2] = 26.21111111111111
 R7: - x[0,3] + x[1,3] + 0.8888888888888888 u[0,3] = 42.33055555555556
 R8: u[0,0] - u[0,1] = 0
 R9: u[0,3] - u_41[0,0] - u_43[0,0] = 0
 R10: u[0,2] + u_41[0,0] - u_43[0,0] = -3
 R11: u[0,0] + u[0,2] + u_41[0,0] = 61
 R12: - x[0,0] + y[0,0] = 0
 R13: - x[0,1] + y[0,1] = 0
 R14: - x[0,2] + y[0,2] = 0
 R15: - x[0,3] + y[0,3] = 0
 R16: z[0,0] = 0
 R17: z[0,1] = 0
 R18: z[0,2] = 0
 R19: z[0,3] = 0
 R20: - x[1,0] + x[2,0] + 0.2336111111111111 u[1,0] = 8.983333333333333
 R21: - x[1,1] + x[2,1] + 0.4194444444444445 u[1,1] = 32.84166666666667
 R22: - x[1,2] + x[2,2] + 0.5602777777777778 u[1,2] = 26.21111111111111
 R23: - x[1,3] + x[2,3] + 0.8888888888888888 u[1,3] = 42.33055555555556
 R24: u[1,0] - u[1,1] = 0
 R25: u[1,3] - u_41[1,0] - u_43[1,0] = 0
 R26: u[1,2] + u_41[1,0] - u_43[1,0] = -3
 R27: u[1,0] + u[1,2] + u_41[1,0] = 61
 R28: - x[1,0] + y[1,0] = 0
 R29: - x[1,1] + y[1,1] = 0
 R30: - x[1,2] + y[1,2] = 0
 R31: - x[1,3] + y[1,3] = 0
 R32: u[0,0] - u[1,0] + z[1,0] = 0
 R33: u[0,1] - u[1,1] + z[1,1] = 0
 R34: u[0,2] - u[1,2] + z[1,2] = 0
 R35: u[0,3] - u[1,3] + z[1,3] = 0
 R36: - x[2,0] + x[3,0] + 0.2336111111111111 u[2,0] = 8.983333333333333
 R37: - x[2,1] + x[3,1] + 0.4194444444444445 u[2,1] = 32.84166666666667
 R38: - x[2,2] + x[3,2] + 0.5602777777777778 u[2,2] = 26.21111111111111
 R39: - x[2,3] + x[3,3] + 0.8888888888888888 u[2,3] = 42.33055555555556
 R40: u[2,0] - u[2,1] = 0
 R41: u[2,3] - u_41[2,0] - u_43[2,0] = 0
 R42: u[2,2] + u_41[2,0] - u_43[2,0] = -3
 R43: u[2,0] + u[2,2] + u_41[2,0] = 61
 R44: - x[2,0] + y[2,0] = 0
 R45: - x[2,1] + y[2,1] = 0
 R46: - x[2,2] + y[2,2] = 0
 R47: - x[2,3] + y[2,3] = 0
 R48: u[0,0] - u[2,0] + z[2,0] = 0
 R49: u[0,1] - u[2,1] + z[2,1] = 0
 R50: u[0,2] - u[2,2] + z[2,2] = 0
 R51: u[0,3] - u[2,3] + z[2,3] = 0
 R52: - x[3,0] + x[4,0] + 0.2336111111111111 u[3,0] = 8.983333333333333
 R53: - x[3,1] + x[4,1] + 0.4194444444444445 u[3,1] = 32.84166666666667
 R54: - x[3,2] + x[4,2] + 0.5602777777777778 u[3,2] = 26.21111111111111
 R55: - x[3,3] + x[4,3] + 0.8888888888888888 u[3,3] = 42.33055555555556
 R56: u[3,0] - u[3,1] = 0
 R57: u[3,3] - u_41[3,0] - u_43[3,0] = 0
 R58: u[3,2] + u_41[3,0] - u_43[3,0] = -3
 R59: u[3,0] + u[3,2] + u_41[3,0] = 61
 R60: - x[3,0] + y[3,0] = 0
 R61: - x[3,1] + y[3,1] = 0
 R62: - x[3,2] + y[3,2] = 0
 R63: - x[3,3] + y[3,3] = 0
 R64: u[0,0] - u[3,0] + z[3,0] = 0
 R65: u[0,1] - u[3,1] + z[3,1] = 0
 R66: u[0,2] - u[3,2] + z[3,2] = 0
 R67: u[0,3] - u[3,3] + z[3,3] = 0
 R68: - x[4,0] + x[5,0] + 0.2336111111111111 u[4,0] = 8.983333333333333
 R69: - x[4,1] + x[5,1] + 0.4194444444444445 u[4,1] = 32.84166666666667
 R70: - x[4,2] + x[5,2] + 0.5602777777777778 u[4,2] = 26.21111111111111
 R71: - x[4,3] + x[5,3] + 0.8888888888888888 u[4,3] = 42.33055555555556
 R72: u[4,0] - u[4,1] = 0
 R73: u[4,3] - u_41[4,0] - u_43[4,0] = 0
 R74: u[4,2] + u_41[4,0] - u_43[4,0] = -3
 R75: u[4,0] + u[4,2] + u_41[4,0] = 61
 R76: - x[4,0] + y[4,0] = 0
 R77: - x[4,1] + y[4,1] = 0
 R78: - x[4,2] + y[4,2] = 0
 R79: - x[4,3] + y[4,3] = 0
 R80: u[0,0] - u[4,0] + z[4,0] = 0
 R81: u[0,1] - u[4,1] + z[4,1] = 0
 R82: u[0,2] - u[4,2] + z[4,2] = 0
 R83: u[0,3] - u[4,3] + z[4,3] = 0
 R84: - x[5,0] + x[6,0] + 0.2336111111111111 u[5,0] = 8.983333333333333
 R85: - x[5,1] + x[6,1] + 0.4194444444444445 u[5,1] = 32.84166666666667
 R86: - x[5,2] + x[6,2] + 0.5602777777777778 u[5,2] = 26.21111111111111
 R87: - x[5,3] + x[6,3] + 0.8888888888888888 u[5,3] = 42.33055555555556
 R88: u[5,0] - u[5,1] = 0
 R89: u[5,3] - u_41[5,0] - u_43[5,0] = 0
 R90: u[5,2] + u_41[5,0] - u_43[5,0] = -3
 R91: u[5,0] + u[5,2] + u_41[5,0] = 61
 R92: - x[5,0] + y[5,0] = 0
 R93: - x[5,1] + y[5,1] = 0
 R94: - x[5,2] + y[5,2] = 0
 R95: - x[5,3] + y[5,3] = 0
 R96: u[0,0] - u[5,0] + z[5,0] = 0
 R97: u[0,1] - u[5,1] + z[5,1] = 0
 R98: u[0,2] - u[5,2] + z[5,2] = 0
 R99: u[0,3] - u[5,3] + z[5,3] = 0
 R100: - x[6,0] + x[7,0] + 0.2336111111111111 u[6,0] = 8.983333333333333
 R101: - x[6,1] + x[7,1] + 0.4194444444444445 u[6,1] = 32.84166666666667
 R102: - x[6,2] + x[7,2] + 0.5602777777777778 u[6,2] = 26.21111111111111
 R103: - x[6,3] + x[7,3] + 0.8888888888888888 u[6,3] = 42.33055555555556
 R104: u[6,0] - u[6,1] = 0
 R105: u[6,3] - u_41[6,0] - u_43[6,0] = 0
 R106: u[6,2] + u_41[6,0] - u_43[6,0] = -3
 R107: u[6,0] + u[6,2] + u_41[6,0] = 61
 R108: - x[6,0] + y[6,0] = 0
 R109: - x[6,1] + y[6,1] = 0
 R110: - x[6,2] + y[6,2] = 0
 R111: - x[6,3] + y[6,3] = 0
 R112: u[0,0] - u[6,0] + z[6,0] = 0
 R113: u[0,1] - u[6,1] + z[6,1] = 0
 R114: u[0,2] - u[6,2] + z[6,2] = 0
 R115: u[0,3] - u[6,3] + z[6,3] = 0
 R116: - x[7,0] + x[8,0] + 0.2336111111111111 u[7,0] = 8.983333333333333
 R117: - x[7,1] + x[8,1] + 0.4194444444444445 u[7,1] = 32.84166666666667
 R118: - x[7,2] + x[8,2] + 0.5602777777777778 u[7,2] = 26.21111111111111
 R119: - x[7,3] + x[8,3] + 0.8888888888888888 u[7,3] = 42.33055555555556
 R120: u[7,0] - u[7,1] = 0
 R121: u[7,3] - u_41[7,0] - u_43[7,0] = 0
 R122: u[7,2] + u_41[7,0] - u_43[7,0] = -3
 R123: u[7,0] + u[7,2] + u_41[7,0] = 61
 R124: - x[7,0] + y[7,0] = 0
 R125: - x[7,1] + y[7,1] = 0
 R126: - x[7,2] + y[7,2] = 0
 R127: - x[7,3] + y[7,3] = 0
 R128: u[0,0] - u[7,0] + z[7,0] = 0
 R129: u[0,1] - u[7,1] + z[7,1] = 0
 R130: u[0,2] - u[7,2] + z[7,2] = 0
 R131: u[0,3] - u[7,3] + z[7,3] = 0
 R132: - x[8,0] + x[9,0] + 0.2336111111111111 u[8,0] = 9.488888888888889
 R133: - x[8,1] + x[9,1] + 0.4194444444444445 u[8,1] = 34.84444444444444
 R134: - x[8,2] + x[9,2] + 0.5602777777777778 u[8,2] = 28.36944444444445
 R135: - x[8,3] + x[9,3] + 0.8888888888888888 u[8,3] = 36.36111111111111
 R136: u[8,0] - u[8,1] = 0
 R137: u[8,3] - u_41[8,0] - u_43[8,0] = 0
 R138: u[8,2] + u_41[8,0] - u_43[8,0] = -3
 R139: u[8,0] + u[8,2] + u_41[8,0] = 61
 R140: - x[8,0] + y[8,0] = 0
 R141: - x[8,1] + y[8,1] = 0
 R142: - x[8,2] + y[8,2] = 0
 R143: - x[8,3] + y[8,3] = 0
 R144: u[0,0] - u[8,0] + z[8,0] = 0
 R145: u[0,1] - u[8,1] + z[8,1] = 0
 R146: u[0,2] - u[8,2] + z[8,2] = 0
 R147: u[0,3] - u[8,3] + z[8,3] = 0
 R148: - x[9,0] + x[10,0] + 0.2336111111111111 u[9,0] = 9.488888888888889
 R149: - x[9,1] + x[10,1] + 0.4194444444444445 u[9,1] = 34.84444444444444
 R150: - x[9,2] + x[10,2] + 0.5602777777777778 u[9,2] = 28.36944444444445
 R151: - x[9,3] + x[10,3] + 0.8888888888888888 u[9,3] = 36.36111111111111
 R152: u[9,0] - u[9,1] = 0
 R153: u[9,3] - u_41[9,0] - u_43[9,0] = 0
 R154: u[9,2] + u_41[9,0] - u_43[9,0] = -3
 R155: u[9,0] + u[9,2] + u_41[9,0] = 61
 R156: - x[9,0] + y[9,0] = 0
 R157: - x[9,1] + y[9,1] = 0
 R158: - x[9,2] + y[9,2] = 0
 R159: - x[9,3] + y[9,3] = 0
 R160: u[0,0] - u[9,0] + z[9,0] = 0
 R161: u[0,1] - u[9,1] + z[9,1] = 0
 R162: u[0,2] - u[9,2] + z[9,2] = 0
 R163: u[0,3] - u[9,3] + z[9,3] = 0
 R164: - x[10,0] + x[11,0] + 0.2336111111111111 u[10,0]
   = 9.488888888888889
 R165: - x[10,1] + x[11,1] + 0.4194444444444445 u[10,1]
   = 34.84444444444444
 R166: - x[10,2] + x[11,2] + 0.5602777777777778 u[10,2]
   = 28.36944444444445
 R167: - x[10,3] + x[11,3] + 0.8888888888888888 u[10,3]
   = 36.36111111111111
 R168: u[10,0] - u[10,1] = 0
 R169: u[10,3] - u_41[10,0] - u_43[10,0] = 0
 R170: u[10,2] + u_41[10,0] - u_43[10,0] = -3
 R171: u[10,0] + u[10,2] + u_41[10,0] = 61
 R172: - x[10,0] + y[10,0] = 0
 R173: - x[10,1] + y[10,1] = 0
 R174: - x[10,2] + y[10,2] = 0
 R175: - x[10,3] + y[10,3] = 0
 R176: u[0,0] - u[10,0] + z[10,0] = 0
 R177: u[0,1] - u[10,1] + z[10,1] = 0
 R178: u[0,2] - u[10,2] + z[10,2] = 0
 R179: u[0,3] - u[10,3] + z[10,3] = 0
 R180: - x[11,0] + x[12,0] + 0.2336111111111111 u[11,0]
   = 9.488888888888889
 R181: - x[11,1] + x[12,1] + 0.4194444444444445 u[11,1]
   = 34.84444444444444
 R182: - x[11,2] + x[12,2] + 0.5602777777777778 u[11,2]
   = 28.36944444444445
 R183: - x[11,3] + x[12,3] + 0.8888888888888888 u[11,3]
   = 36.36111111111111
 R184: u[11,0] - u[11,1] = 0
 R185: u[11,3] - u_41[11,0] - u_43[11,0] = 0
 R186: u[11,2] + u_41[11,0] - u_43[11,0] = -3
 R187: u[11,0] + u[11,2] + u_41[11,0] = 61
 R188: - x[11,0] + y[11,0] = 0
 R189: - x[11,1] + y[11,1] = 0
 R190: - x[11,2] + y[11,2] = 0
 R191: - x[11,3] + y[11,3] = 0
 R192: u[0,0] - u[11,0] + z[11,0] = 0
 R193: u[0,1] - u[11,1] + z[11,1] = 0
 R194: u[0,2] - u[11,2] + z[11,2] = 0
 R195: u[0,3] - u[11,3] + z[11,3] = 0
 R196: - x[12,0] + x[13,0] + 0.2336111111111111 u[12,0]
   = 9.488888888888889
 R197: - x[12,1] + x[13,1] + 0.4194444444444445 u[12,1]
   = 34.84444444444444
 R198: - x[12,2] + x[13,2] + 0.5602777777777778 u[12,2]
   = 28.36944444444445
 R199: - x[12,3] + x[13,3] + 0.8888888888888888 u[12,3]
   = 36.36111111111111
 R200: u[12,0] - u[12,1] = 0
 R201: u[12,3] - u_41[12,0] - u_43[12,0] = 0
 R202: u[12,2] + u_41[12,0] - u_43[12,0] = -3
 R203: u[12,0] + u[12,2] + u_41[12,0] = 61
 R204: - x[12,0] + y[12,0] = 0
 R205: - x[12,1] + y[12,1] = 0
 R206: - x[12,2] + y[12,2] = 0
 R207: - x[12,3] + y[12,3] = 0
 R208: u[0,0] - u[12,0] + z[12,0] = 0
 R209: u[0,1] - u[12,1] + z[12,1] = 0
 R210: u[0,2] - u[12,2] + z[12,2] = 0
 R211: u[0,3] - u[12,3] + z[12,3] = 0
 R212: - x[13,0] + x[14,0] + 0.2336111111111111 u[13,0]
   = 9.488888888888889
 R213: - x[13,1] + x[14,1] + 0.4194444444444445 u[13,1]
   = 34.84444444444444
 R214: - x[13,2] + x[14,2] + 0.5602777777777778 u[13,2]
   = 28.36944444444445
 R215: - x[13,3] + x[14,3] + 0.8888888888888888 u[13,3]
   = 36.36111111111111
 R216: u[13,0] - u[13,1] = 0
 R217: u[13,3] - u_41[13,0] - u_43[13,0] = 0
 R218: u[13,2] + u_41[13,0] - u_43[13,0] = -3
 R219: u[13,0] + u[13,2] + u_41[13,0] = 61
 R220: - x[13,0] + y[13,0] = 0
 R221: - x[13,1] + y[13,1] = 0
 R222: - x[13,2] + y[13,2] = 0
 R223: - x[13,3] + y[13,3] = 0
 R224: u[0,0] - u[13,0] + z[13,0] = 0
 R225: u[0,1] - u[13,1] + z[13,1] = 0
 R226: u[0,2] - u[13,2] + z[13,2] = 0
 R227: u[0,3] - u[13,3] + z[13,3] = 0
 R228: - x[14,0] + x[15,0] + 0.2336111111111111 u[14,0]
   = 9.488888888888889
 R229: - x[14,1] + x[15,1] + 0.4194444444444445 u[14,1]
   = 34.84444444444444
 R230: - x[14,2] + x[15,2] + 0.5602777777777778 u[14,2]
   = 28.36944444444445
 R231: - x[14,3] + x[15,3] + 0.8888888888888888 u[14,3]
   = 36.36111111111111
 R232: u[14,0] - u[14,1] = 0
 R233: u[14,3] - u_41[14,0] - u_43[14,0] = 0
 R234: u[14,2] + u_41[14,0] - u_43[14,0] = -3
 R235: u[14,0] + u[14,2] + u_41[14,0] = 61
 R236: - x[14,0] + y[14,0] = 0
 R237: - x[14,1] + y[14,1] = 0
 R238: - x[14,2] + y[14,2] = 0
 R239: - x[14,3] + y[14,3] = 0
 R240: u[0,0] - u[14,0] + z[14,0] = 0
 R241: u[0,1] - u[14,1] + z[14,1] = 0
 R242: u[0,2] - u[14,2] + z[14,2] = 0
 R243: u[0,3] - u[14,3] + z[14,3] = 0
 R244: - x[15,0] + y[15,0] = 0
 R245: - x[15,1] + y[15,1] = 0
 R246: - x[15,2] + y[15,2] = 0
 R247: - x[15,3] + y[15,3] = 0
Bounds
 u[0,0] >= 15
 u[0,1] >= 15
 u[0,2] >= 15
 u[0,3] >= 15
 u[1,0] >= 15
 u[1,1] >= 15
 u[1,2] >= 15
 u[1,3] >= 15
 u[2,0] >= 15
 u[2,1] >= 15
 u[2,2] >= 15
 u[2,3] >= 15
 u[3,0] >= 15
 u[3,1] >= 15
 u[3,2] >= 15
 u[3,3] >= 15
 u[4,0] >= 15
 u[4,1] >= 15
 u[4,2] >= 15
 u[4,3] >= 15
 u[5,0] >= 15
 u[5,1] >= 15
 u[5,2] >= 15
 u[5,3] >= 15
 u[6,0] >= 15
 u[6,1] >= 15
 u[6,2] >= 15
 u[6,3] >= 15
 u[7,0] >= 15
 u[7,1] >= 15
 u[7,2] >= 15
 u[7,3] >= 15
 u[8,0] >= 15
 u[8,1] >= 15
 u[8,2] >= 15
 u[8,3] >= 15
 u[9,0] >= 15
 u[9,1] >= 15
 u[9,2] >= 15
 u[9,3] >= 15
 u[10,0] >= 15
 u[10,1] >= 15
 u[10,2] >= 15
 u[10,3] >= 15
 u[11,0] >= 15
 u[11,1] >= 15
 u[11,2] >= 15
 u[11,3] >= 15
 u[12,0] >= 15
 u[12,1] >= 15
 u[12,2] >= 15
 u[12,3] >= 15
 u[13,0] >= 15
 u[13,1] >= 15
 u[13,2] >= 15
 u[13,3] >= 15
 u[14,0] >= 15
 u[14,1] >= 15
 u[14,2] >= 15
 u[14,3] >= 15
 u_41[0,0] >= 15
 u_41[1,0] >= 15
 u_41[2,0] >= 15
 u_41[3,0] >= 15
 u_41[4,0] >= 15
 u_41[5,0] >= 15
 u_41[6,0] >= 15
 u_41[7,0] >= 15
 u_41[8,0] >= 15
 u_41[9,0] >= 15
 u_41[10,0] >= 15
 u_41[11,0] >= 15
 u_41[12,0] >= 15
 u_41[13,0] >= 15
 u_41[14,0] >= 15
 u_43[0,0] >= 15
 u_43[1,0] >= 15
 u_43[2,0] >= 15
 u_43[3,0] >= 15
 u_43[4,0] >= 15
 u_43[5,0] >= 15
 u_43[6,0] >= 15
 u_43[7,0] >= 15
 u_43[8,0] >= 15
 u_43[9,0] >= 15
 u_43[10,0] >= 15
 u_43[11,0] >= 15
 u_43[12,0] >= 15
 u_43[13,0] >= 15
 u_43[14,0] >= 15
 y[0,0] free
 y[0,1] free
 y[0,2] free
 y[0,3] free
 y[1,0] free
 y[1,1] free
 y[1,2] free
 y[1,3] free
 y[2,0] free
 y[2,1] free
 y[2,2] free
 y[2,3] free
 y[3,0] free
 y[3,1] free
 y[3,2] free
 y[3,3] free
 y[4,0] free
 y[4,1] free
 y[4,2] free
 y[4,3] free
 y[5,0] free
 y[5,1] free
 y[5,2] free
 y[5,3] free
 y[6,0] free
 y[6,1] free
 y[6,2] free
 y[6,3] free
 y[7,0] free
 y[7,1] free
 y[7,2] free
 y[7,3] free
 y[8,0] free
 y[8,1] free
 y[8,2] free
 y[8,3] free
 y[9,0] free
 y[9,1] free
 y[9,2] free
 y[9,3] free
 y[10,0] free
 y[10,1] free
 y[10,2] free
 y[10,3] free
 y[11,0] free
 y[11,1] free
 y[11,2] free
 y[11,3] free
 y[12,0] free
 y[12,1] free
 y[12,2] free
 y[12,3] free
 y[13,0] free
 y[13,1] free
 y[13,2] free
 y[13,3] free
 y[14,0] free
 y[14,1] free
 y[14,2] free
 y[14,3] free
 y[15,0] free
 y[15,1] free
 y[15,2] free
 y[15,3] free
 z[0,0] free
 z[0,1] free
 z[0,2] free
 z[0,3] free
 z[1,0] free
 z[1,1] free
 z[1,2] free
 z[1,3] free
 z[2,0] free
 z[2,1] free
 z[2,2] free
 z[2,3] free
 z[3,0] free
 z[3,1] free
 z[3,2] free
 z[3,3] free
 z[4,0] free
 z[4,1] free
 z[4,2] free
 z[4,3] free
 z[5,0] free
 z[5,1] free
 z[5,2] free
 z[5,3] free
 z[6,0] free
 z[6,1] free
 z[6,2] free
 z[6,3] free
 z[7,0] free
 z[7,1] free
 z[7,2] free
 z[7,3] free
 z[8,0] free
 z[8,1] free
 z[8,2] free
 z[8,3] free
 z[9,0] free
 z[9,1] free
 z[9,2] free
 z[9,3] free
 z[10,0] free
 z[10,1] free
 z[10,2] free
 z[10,3] free
 z[11,0] free
 z[11,1] free
 z[11,2] free
 z[11,3] free
 z[12,0] free
 z[12,1] free
 z[12,2] free
 z[12,3] free
 z[13,0] free
 z[13,1] free
 z[13,2] free
 z[13,3] free
 z[14,0] free
 z[14,1] free
 z[14,2] free
 z[14,3] free
Generals
 u[0,0] u[0,1] u[0,2] u[0,3] u[1,0] u[1,1] u[1,2] u[1,3] u[2,0] u[2,1]
 u[2,2] u[2,3] u[3,0] u[3,1] u[3,2] u[3,3] u[4,0] u[4,1] u[4,2] u[4,3]
 u[5,0] u[5,1] u[5,2] u[5,3] u[6,0] u[6,1] u[6,2] u[6,3] u[7,0] u[7,1]
 u[7,2] u[7,3] u[8,0] u[8,1] u[8,2] u[8,3] u[9,0] u[9,1] u[9,2] u[9,3]
 u[10,0] u[10,1] u[10,2] u[10,3] u[11,0] u[11,1] u[11,2] u[11,3] u[12,0]
 u[12,1] u[12,2] u[12,3] u[13,0] u[13,1] u[13,2] u[13,3] u[14,0] u[14,1]
 u[14,2] u[14,3] u_41[0,0] u_41[1,0] u_41[2,0] u_41[3,0] u_41[4,0]
 u_41[5,0] u_41[6,0] u_41[7,0] u_41[8,0] u_41[9,0] u_41[10,0] u_41[11,0]
 u_41[12,0] u_41[13,0] u_41[14,0] u_43[0,0] u_43[1,0] u_43[2,0] u_43[3,0]
 u_43[4,0] u_43[5,0] u_43[6,0] u_43[7,0] u_43[8,0] u_43[9,0] u_43[10,0]
 u_43[11,0] u_43[12,0] u_43[13,0] u_43[14,0]
End
